RST02
Position Depot: Center
Horizon for Depot: Small
Position of customers: Random
Distribution of the demand: Large
Width of time windows: Tight
Distribution of the service: Large

VEHICLE 
NUMBER 	 CAPACITY 
 10 	 	 255 
 
CUSTOMER
CUST NO. 	 XCOORD.  	 YCOORD. 	 DEMAND 	 READY TIME 	 DUE DATE 	 SERVICE TIME 
 0 	 	 500 	 	 500 	 	 0 	 	 0 	 	 1870 	 	 0 
  1 	 	 483 	 	 247 	 	 79 	 	 1287 	 	 1347 	 	 104 
  2 	 	 14 	 	 957 	 	 62 	 	 1703 	 	 1870 	 	 159 
  3 	 	 787 	 	 439 	 	 32 	 	 783 	 	 878 	 	 113 
  4 	 	 248 	 	 291 	 	 39 	 	 443 	 	 499 	 	 113 
  5 	 	 210 	 	 439 	 	 86 	 	 496 	 	 672 	 	 196 
  6 	 	 287 	 	 815 	 	 40 	 	 249 	 	 418 	 	 117 
  7 	 	 287 	 	 320 	 	 40 	 	 1603 	 	 1803 	 	 169 
  8 	 	 347 	 	 36 	 	 39 	 	 422 	 	 537 	 	 159 
  9 	 	 514 	 	 740 	 	 68 	 	 431 	 	 481 	 	 140 
  10 	 	 956 	 	 467 	 	 15 	 	 343 	 	 502 	 	 145 
  11 	 	 258 	 	 43 	 	 18 	 	 1328 	 	 1507 	 	 139 
  12 	 	 383 	 	 800 	 	 44 	 	 769 	 	 864 	 	 199 
  13 	 	 53 	 	 479 	 	 42 	 	 384 	 	 492 	 	 161 
  14 	 	 166 	 	 636 	 	 55 	 	 1042 	 	 1193 	 	 114 
  15 	 	 319 	 	 923 	 	 98 	 	 339 	 	 506 	 	 120 
  16 	 	 603 	 	 965 	 	 56 	 	 961 	 	 1046 	 	 194 
  17 	 	 64 	 	 31 	 	 72 	 	 1339 	 	 1525 	 	 161 
  18 	 	 584 	 	 614 	 	 69 	 	 215 	 	 326 	 	 105 
  19 	 	 920 	 	 550 	 	 39 	 	 749 	 	 945 	 	 159 
  20 	 	 263 	 	 583 	 	 45 	 	 1062 	 	 1197 	 	 166 
  21 	 	 374 	 	 580 	 	 5 	 	 288 	 	 447 	 	 128 
  22 	 	 508 	 	 835 	 	 81 	 	 703 	 	 817 	 	 192 
  23 	 	 985 	 	 760 	 	 97 	 	 539 	 	 605 	 	 178 
  24 	 	 265 	 	 866 	 	 38 	 	 1022 	 	 1080 	 	 137 
  25 	 	 489 	 	 945 	 	 62 	 	 1401 	 	 1492 	 	 111 
  26 	 	 689 	 	 601 	 	 68 	 	 1680 	 	 1870 	 	 125 
  27 	 	 51 	 	 585 	 	 75 	 	 1002 	 	 1138 	 	 136 
  28 	 	 67 	 	 568 	 	 78 	 	 415 	 	 508 	 	 118 
  29 	 	 697 	 	 736 	 	 56 	 	 1227 	 	 1357 	 	 181 
  30 	 	 964 	 	 726 	 	 26 	 	 1155 	 	 1324 	 	 185 
  31 	 	 942 	 	 988 	 	 24 	 	 1786 	 	 1836 	 	 197 
  32 	 	 207 	 	 51 	 	 3 	 	 440 	 	 589 	 	 200 
  33 	 	 370 	 	 921 	 	 56 	 	 393 	 	 484 	 	 100 
  34 	 	 837 	 	 436 	 	 5 	 	 470 	 	 535 	 	 150 
  35 	 	 115 	 	 378 	 	 48 	 	 1089 	 	 1173 	 	 148 
  36 	 	 535 	 	 654 	 	 13 	 	 1459 	 	 1590 	 	 162 
  37 	 	 647 	 	 3 	 	 60 	 	 417 	 	 570 	 	 171 
  38 	 	 81 	 	 443 	 	 77 	 	 1134 	 	 1280 	 	 102 
  39 	 	 352 	 	 527 	 	 38 	 	 398 	 	 549 	 	 163 
  40 	 	 983 	 	 413 	 	 48 	 	 474 	 	 539 	 	 152 
  41 	 	 620 	 	 438 	 	 76 	 	 277 	 	 364 	 	 142 
  42 	 	 195 	 	 144 	 	 63 	 	 781 	 	 911 	 	 196 
  43 	 	 790 	 	 6 	 	 47 	 	 692 	 	 834 	 	 193 
  44 	 	 82 	 	 802 	 	 97 	 	 743 	 	 826 	 	 191 
  45 	 	 660 	 	 971 	 	 5 	 	 1746 	 	 1832 	 	 106 
  46 	 	 750 	 	 316 	 	 34 	 	 651 	 	 711 	 	 110 
  47 	 	 130 	 	 140 	 	 31 	 	 598 	 	 701 	 	 196 
  48 	 	 161 	 	 454 	 	 26 	 	 763 	 	 908 	 	 116 
  49 	 	 318 	 	 803 	 	 76 	 	 291 	 	 458 	 	 103 
  50 	 	 587 	 	 182 	 	 94 	 	 1242 	 	 1323 	 	 104 
 